(set-info :smt-lib-version 2.6)
(set-logic UF)
(set-info :source |Benchmarks from the paper: "Extending Sledgehammer with SMT Solvers" by Jasmin Blanchette, Sascha Bohme, and Lawrence C. Paulson, CADE 2011.  Translated to SMT2 by Andrew Reynolds and Morgan Deters.|)
(set-info :category "industrial")
(set-info :status unknown)
(declare-sort S1 0)
(declare-sort S2 0)
(declare-sort S3 0)
(declare-sort S4 0)
(declare-sort S5 0)
(declare-sort S6 0)
(declare-sort S7 0)
(declare-sort S8 0)
(declare-sort S9 0)
(declare-sort S10 0)
(declare-fun f1 () S1)
(declare-fun f2 () S1)
(declare-fun f3 (S2 S3) S3)
(declare-fun f4 (S4 S3) S2)
(declare-fun f5 () S4)
(declare-fun f6 () S4)
(declare-fun f7 () S2)
(declare-fun f8 () S2)
(declare-fun f9 () S2)
(declare-fun f10 () S3)
(declare-fun f11 () S3)
(declare-fun f12 () S3)
(declare-fun f13 (S5 S6) S3)
(declare-fun f14 () S5)
(declare-fun f15 () S6)
(declare-fun f16 (S7 S3) S5)
(declare-fun f17 () S7)
(declare-fun f18 () S3)
(declare-fun f19 (S8 S3) S6)
(declare-fun f20 () S8)
(declare-fun f21 () S3)
(declare-fun f22 () S3)
(declare-fun f23 () S3)
(declare-fun f24 () S3)
(declare-fun f25 () S4)
(declare-fun f26 (S3) S1)
(declare-fun f27 (S3) S1)
(declare-fun f28 () S6)
(declare-fun f29 (S3 S3) S1)
(declare-fun f30 () S3)
(declare-fun f31 () S3)
(declare-fun f32 (S3 S3) S1)
(declare-fun f33 (S9 S6) S6)
(declare-fun f34 (S10 S6) S9)
(declare-fun f35 () S10)
(declare-fun f36 () S10)
(declare-fun f37 () S10)
(declare-fun f38 () S3)
(declare-fun f39 (S6 S6) S1)
(declare-fun f40 () S3)
(declare-fun f41 () S6)
(declare-fun f42 () S3)
(assert (not (= f1 f2)))
(assert (let ((?v_0 (f3 f8 (f3 f9 f10))) (?v_2 (f3 (f4 f6 f12) (f13 f14 f15)))) (let ((?v_1 (f19 f20 ?v_0))) (let ((?v_3 (f4 f5 (f13 (f16 f17 ?v_2) ?v_1))) (?v_4 (f4 f5 f22)) (?v_5 (f4 f5 f23))) (not (= (f3 (f4 f5 (f3 (f4 f5 (f3 (f4 f6 (f3 (f4 f5 (f3 f7 (f3 f8 ?v_0))) f11)) f12)) ?v_2)) (f3 (f4 f6 (f13 (f16 f17 f18) ?v_1)) (f13 (f16 f17 f21) ?v_1))) (f3 (f4 f6 (f3 ?v_3 (f13 (f16 f17 (f3 (f4 f6 (f3 (f4 f6 (f3 ?v_4 f18)) (f3 ?v_5 f21))) f24)) ?v_1))) (f3 ?v_3 (f13 (f16 f17 (f3 (f4 f25 (f3 ?v_4 f21)) (f3 ?v_5 f18))) ?v_1)))))))))
(assert (let ((?v_0 (f3 f8 (f3 f9 f10))) (?v_2 (f3 (f4 f6 f12) (f13 f14 f15)))) (let ((?v_1 (f19 f20 ?v_0)) (?v_4 (f4 f5 f22)) (?v_5 (f4 f5 f23)) (?v_3 (f4 f5 ?v_2))) (= (f3 (f4 f5 (f3 (f4 f5 (f3 (f4 f6 (f3 (f4 f5 (f3 f7 (f3 f8 ?v_0))) f11)) f12)) ?v_2)) (f3 (f4 f6 (f13 (f16 f17 f18) ?v_1)) (f13 (f16 f17 f21) ?v_1))) (f3 (f4 f6 (f13 (f16 f17 (f3 (f4 f6 (f3 (f4 f6 (f3 ?v_3 (f3 ?v_4 f18))) (f3 ?v_3 (f3 ?v_5 f21)))) (f3 ?v_3 f24))) ?v_1)) (f13 (f16 f17 (f3 (f4 f25 (f3 ?v_3 (f3 ?v_4 f21))) (f3 ?v_3 (f3 ?v_5 f18)))) ?v_1))))))
(assert (let ((?v_0 (f19 f20 (f3 f8 (f3 f9 f10))))) (= (f3 (f4 f6 (f13 (f16 f17 f18) ?v_0)) (f13 (f16 f17 f21) ?v_0)) (f3 (f4 f5 (f3 (f4 f6 f12) (f13 f14 f15))) f24))))
(assert (let ((?v_0 (f3 f8 (f3 f9 f10))) (?v_2 (f3 (f4 f6 f12) (f13 f14 f15)))) (let ((?v_1 (f19 f20 ?v_0)) (?v_4 (f4 f5 f22)) (?v_5 (f4 f5 f23)) (?v_3 (f4 f5 ?v_2))) (= (f3 (f4 f5 (f3 (f4 f5 (f3 (f4 f6 (f3 (f4 f5 (f3 f7 (f3 f8 ?v_0))) f11)) f12)) ?v_2)) (f3 (f4 f6 (f13 (f16 f17 f18) ?v_1)) (f13 (f16 f17 f21) ?v_1))) (f3 (f4 f6 (f13 (f16 f17 (f3 (f4 f6 (f3 (f4 f6 (f3 ?v_3 (f3 ?v_4 f18))) (f3 ?v_3 (f3 ?v_5 f21)))) (f3 ?v_3 f24))) ?v_1)) (f13 (f16 f17 (f3 (f4 f25 (f3 ?v_3 (f3 ?v_4 f21))) (f3 ?v_3 (f3 ?v_5 f18)))) ?v_1))))))
(assert (let ((?v_0 (f3 (f4 f6 f12) (f13 f14 f15))) (?v_3 (f19 f20 (f3 f8 (f3 f9 f10)))) (?v_4 (f4 f5 f22)) (?v_6 (f4 f5 f23))) (let ((?v_5 (f4 f5 ?v_0)) (?v_1 (f4 f5 (f3 (f4 f6 (f3 ?v_4 ?v_0)) f18))) (?v_2 (f4 f5 (f3 (f4 f6 (f3 ?v_6 ?v_0)) f21)))) (= (f3 (f4 f6 (f13 (f16 f17 (f3 (f4 f6 (f3 ?v_1 f18)) (f3 ?v_2 f21))) ?v_3)) (f13 (f16 f17 (f3 (f4 f25 (f3 ?v_1 f21)) (f3 ?v_2 f18))) ?v_3)) (f3 (f4 f6 (f13 (f16 f17 (f3 (f4 f6 (f3 (f4 f6 (f3 ?v_5 (f3 ?v_4 f18))) (f3 ?v_5 (f3 ?v_6 f21)))) (f3 (f4 f6 (f13 (f16 f17 f18) ?v_3)) (f13 (f16 f17 f21) ?v_3)))) ?v_3)) (f13 (f16 f17 (f3 (f4 f25 (f3 ?v_5 (f3 ?v_4 f21))) (f3 ?v_5 (f3 ?v_6 f18)))) ?v_3))))))
(assert (let ((?v_1 (f19 f20 (f3 f8 (f3 f9 f10)))) (?v_2 (f4 f5 f22)) (?v_3 (f4 f5 f23)) (?v_0 (f4 f5 (f3 (f4 f6 f12) (f13 f14 f15))))) (let ((?v_4 (f4 f6 (f3 (f4 f6 (f3 ?v_0 (f3 ?v_2 f18))) (f3 ?v_0 (f3 ?v_3 f21))))) (?v_5 (f13 (f16 f17 (f3 (f4 f25 (f3 ?v_0 (f3 ?v_2 f21))) (f3 ?v_0 (f3 ?v_3 f18)))) ?v_1))) (= (f3 (f4 f6 (f13 (f16 f17 (f3 ?v_4 (f3 (f4 f6 (f13 (f16 f17 f18) ?v_1)) (f13 (f16 f17 f21) ?v_1)))) ?v_1)) ?v_5) (f3 (f4 f6 (f13 (f16 f17 (f3 ?v_4 (f3 ?v_0 f24))) ?v_1)) ?v_5)))))
(assert (=> (forall ((?v0 S3) (?v1 S3)) (let ((?v_1 (f3 f8 (f3 f9 f10)))) (let ((?v_0 (f19 f20 ?v_1))) (=> (= (f3 (f4 f6 (f13 (f16 f17 ?v0) ?v_0)) (f13 (f16 f17 ?v1) ?v_0)) (f3 (f4 f5 (f3 (f4 f6 (f3 (f4 f5 (f3 f7 (f3 f8 ?v_1))) f11)) f12)) (f3 (f4 f6 f12) (f13 f14 f15)))) false)))) false))
(assert (=> (forall ((?v0 S3)) (let ((?v_0 (f19 f20 (f3 f8 (f3 f9 f10))))) (=> (= (f3 (f4 f6 (f13 (f16 f17 f18) ?v_0)) (f13 (f16 f17 f21) ?v_0)) (f3 (f4 f5 (f3 (f4 f6 f12) (f13 f14 f15))) ?v0)) false))) false))
(assert (= (f26 (f3 (f4 f6 (f3 (f4 f5 (f3 f7 (f3 f8 (f3 f8 (f3 f9 f10))))) f11)) f12)) f1))
(assert (not (= (f27 (f3 (f4 f5 (f3 (f4 f6 (f3 (f4 f5 (f3 f7 (f3 f8 (f3 f8 (f3 f9 f10))))) f11)) f12)) (f3 (f4 f6 f12) (f13 f14 f28)))) f1)))
(assert (let ((?v_0 (f3 (f4 f6 (f3 (f4 f5 (f3 f7 (f3 f8 (f3 f8 (f3 f9 f10))))) f11)) f12)) (?v_1 (f3 (f4 f6 f12) (f13 f14 f15)))) (not (=> (= (f29 ?v_1 ?v_0) f1) (not (= (f27 (f3 (f4 f5 ?v_0) ?v_1)) f1))))))
(assert (let ((?v_1 (f3 f8 (f3 f9 f10)))) (let ((?v_0 (f19 f20 ?v_1))) (= (f3 (f4 f6 (f13 (f16 f17 f30) ?v_0)) (f13 (f16 f17 f31) ?v_0)) (f3 (f4 f5 (f3 (f4 f6 (f3 (f4 f5 (f3 f7 (f3 f8 ?v_1))) f11)) f12)) (f3 (f4 f6 f12) (f13 f14 f15)))))))
(assert (forall ((?v0 S3) (?v1 S3)) (let ((?v_1 (f3 f8 (f3 f9 f10)))) (let ((?v_0 (f19 f20 ?v_1))) (= (f13 (f16 f17 (f3 (f4 f25 ?v0) ?v1)) ?v_0) (f3 (f4 f6 (f3 (f4 f25 (f13 (f16 f17 ?v0) ?v_0)) (f3 (f4 f5 (f3 (f4 f5 (f3 f7 ?v_1)) ?v0)) ?v1))) (f13 (f16 f17 ?v1) ?v_0)))))))
(assert (forall ((?v0 S3) (?v1 S3)) (let ((?v_3 (f3 f9 f10))) (let ((?v_5 (f19 f20 (f3 f8 ?v_3))) (?v_1 (f3 f9 ?v_3))) (let ((?v_0 (f19 f20 ?v_1)) (?v_2 (f16 f17 ?v0)) (?v_4 (f4 f5 (f3 f7 ?v_1))) (?v_6 (f16 f17 ?v1))) (= (f13 (f16 f17 (f3 (f4 f25 ?v0) ?v1)) ?v_0) (f3 (f4 f25 (f3 (f4 f6 (f3 (f4 f25 (f13 ?v_2 ?v_0)) (f3 (f4 f5 (f3 ?v_4 (f13 ?v_2 ?v_5))) ?v1))) (f3 (f4 f5 (f3 ?v_4 ?v0)) (f13 ?v_6 ?v_5)))) (f13 ?v_6 ?v_0))))))))
(assert (forall ((?v0 S3) (?v1 S3)) (let ((?v_1 (f3 f8 (f3 f9 f10)))) (let ((?v_0 (f19 f20 ?v_1))) (= (f13 (f16 f17 (f3 (f4 f25 ?v0) ?v1)) ?v_0) (f3 (f4 f25 (f3 (f4 f6 (f13 (f16 f17 ?v0) ?v_0)) (f13 (f16 f17 ?v1) ?v_0))) (f3 (f4 f5 (f3 (f4 f5 (f3 f7 ?v_1)) ?v0)) ?v1)))))))
(assert (let ((?v_0 (f19 f20 (f3 f8 (f3 f9 f10))))) (= (f32 (f3 (f4 f6 f12) (f13 f14 f15)) (f3 (f4 f6 (f13 (f16 f17 f18) ?v_0)) (f13 (f16 f17 f21) ?v_0))) f1)))
(assert (forall ((?v0 S3) (?v1 S3)) (let ((?v_0 (f19 f20 (f3 f8 (f3 f9 f10))))) (= (f3 (f4 f5 (f3 (f4 f6 ?v0) ?v1)) (f3 (f4 f25 ?v0) ?v1)) (f3 (f4 f25 (f13 (f16 f17 ?v0) ?v_0)) (f13 (f16 f17 ?v1) ?v_0))))))
(assert (forall ((?v0 S3) (?v1 S3)) (let ((?v_1 (f3 f8 (f3 f9 f10)))) (let ((?v_0 (f19 f20 ?v_1))) (= (f13 (f16 f17 (f3 (f4 f6 ?v0) ?v1)) ?v_0) (f3 (f4 f6 (f3 (f4 f6 (f13 (f16 f17 ?v0) ?v_0)) (f3 (f4 f5 (f3 (f4 f5 (f3 f7 ?v_1)) ?v0)) ?v1))) (f13 (f16 f17 ?v1) ?v_0)))))))
(assert (forall ((?v0 S3) (?v1 S3)) (let ((?v_3 (f3 f9 f10))) (let ((?v_5 (f19 f20 (f3 f8 ?v_3))) (?v_1 (f3 f9 ?v_3))) (let ((?v_0 (f19 f20 ?v_1)) (?v_4 (f4 f5 (f3 f7 ?v_1))) (?v_2 (f16 f17 ?v0)) (?v_6 (f16 f17 ?v1))) (= (f13 (f16 f17 (f3 (f4 f6 ?v0) ?v1)) ?v_0) (f3 (f4 f6 (f3 (f4 f6 (f3 (f4 f6 (f13 ?v_2 ?v_0)) (f3 (f4 f5 (f3 ?v_4 (f13 ?v_2 ?v_5))) ?v1))) (f3 (f4 f5 (f3 ?v_4 ?v0)) (f13 ?v_6 ?v_5)))) (f13 ?v_6 ?v_0))))))))
(assert (forall ((?v0 S6) (?v1 S6)) (let ((?v_0 (f19 f20 (f3 f8 (f3 f9 f10))))) (= (f33 (f34 f35 (f33 (f34 f36 ?v0) ?v1)) ?v_0) (f33 (f34 f36 (f33 (f34 f36 (f33 (f34 f35 ?v0) ?v_0)) (f33 (f34 f35 ?v1) ?v_0))) (f33 (f34 f37 (f33 (f34 f37 ?v_0) ?v0)) ?v1))))))
(assert (forall ((?v0 S3) (?v1 S3)) (let ((?v_1 (f3 f8 (f3 f9 f10)))) (let ((?v_0 (f19 f20 ?v_1))) (= (f13 (f16 f17 (f3 (f4 f6 ?v0) ?v1)) ?v_0) (f3 (f4 f6 (f3 (f4 f6 (f13 (f16 f17 ?v0) ?v_0)) (f13 (f16 f17 ?v1) ?v_0))) (f3 (f4 f5 (f3 (f4 f5 (f3 f7 ?v_1)) ?v0)) ?v1)))))))
(assert (forall ((?v0 S3)) (let ((?v_0 (f3 f7 ?v0))) (= (f13 (f16 f17 ?v_0) (f19 f20 (f3 f8 (f3 f9 f10)))) (f3 (f4 f5 ?v_0) ?v_0)))))
(assert (forall ((?v0 S3)) (let ((?v_0 (f19 f20 ?v0))) (= (f33 (f34 f35 ?v_0) (f19 f20 (f3 f8 (f3 f9 f10)))) (f33 (f34 f37 ?v_0) ?v_0)))))
(assert (= (f29 f12 f38) f1))
(assert (= (f29 f24 (f3 (f4 f6 f12) (f13 f14 f15))) f1))
(assert (= (f39 f28 f15) f1))
(assert (let ((?v_0 (f3 (f4 f6 (f3 (f4 f5 (f3 f7 (f3 f8 (f3 f8 (f3 f9 f10))))) f11)) f12)) (?v_1 (f3 (f4 f6 f12) (f13 f14 f15)))) (and (= (f29 ?v_1 ?v_0) f1) (= (f27 (f3 (f4 f5 ?v_0) ?v_1)) f1))))
(assert (let ((?v_0 (f19 f20 (f3 f8 (f3 f9 f10)))) (?v_1 (f4 f5 f30)) (?v_2 (f4 f5 f31))) (= (f3 (f4 f5 (f3 (f4 f6 (f13 (f16 f17 f30) ?v_0)) (f13 (f16 f17 f31) ?v_0))) (f3 (f4 f6 (f13 (f16 f17 f18) ?v_0)) (f13 (f16 f17 f21) ?v_0))) (f3 (f4 f6 (f13 (f16 f17 (f3 (f4 f6 (f3 ?v_1 f18)) (f3 ?v_2 f21))) ?v_0)) (f13 (f16 f17 (f3 (f4 f25 (f3 ?v_1 f21)) (f3 ?v_2 f18))) ?v_0)))))
(assert (let ((?v_0 (f3 f8 (f3 f9 f10)))) (let ((?v_1 (f19 f20 ?v_0))) (let ((?v_2 (f3 (f4 f6 (f13 (f16 f17 f18) ?v_1)) (f13 (f16 f17 f21) ?v_1)))) (= (f3 (f4 f5 (f3 (f4 f5 (f3 (f4 f6 (f3 (f4 f5 (f3 f7 (f3 f8 ?v_0))) f11)) f12)) (f3 (f4 f6 f12) (f13 f14 f15)))) ?v_2) (f3 (f4 f5 (f3 (f4 f6 (f13 (f16 f17 f30) ?v_1)) (f13 (f16 f17 f31) ?v_1))) ?v_2))))))
(assert (let ((?v_3 (f3 (f4 f6 f12) (f13 f14 f15))) (?v_2 (f19 f20 (f3 f8 (f3 f9 f10))))) (let ((?v_4 (f4 f5 (f3 (f4 f6 (f3 (f4 f5 f22) ?v_3)) f18))) (?v_5 (f4 f5 (f3 (f4 f6 (f3 (f4 f5 f23) ?v_3)) f21))) (?v_0 (f4 f5 f30)) (?v_1 (f4 f5 f31))) (= (f3 (f4 f6 (f13 (f16 f17 (f3 (f4 f6 (f3 ?v_0 f18)) (f3 ?v_1 f21))) ?v_2)) (f13 (f16 f17 (f3 (f4 f25 (f3 ?v_0 f21)) (f3 ?v_1 f18))) ?v_2)) (f3 (f4 f6 (f13 (f16 f17 (f3 (f4 f6 (f3 ?v_4 f18)) (f3 ?v_5 f21))) ?v_2)) (f13 (f16 f17 (f3 (f4 f25 (f3 ?v_4 f21)) (f3 ?v_5 f18))) ?v_2))))))
(assert (forall ((?v0 S3) (?v1 S3) (?v2 S6)) (=> (= (f26 ?v0) f1) (=> (= (f32 ?v0 (f13 (f16 f17 ?v1) ?v2)) f1) (= (f32 ?v0 ?v1) f1)))))
(assert (forall ((?v0 S3) (?v1 S3)) (= (= (f29 f40 (f3 (f4 f6 (f3 (f4 f5 ?v0) ?v0)) (f3 (f4 f5 ?v1) ?v1))) f1) (or (not (= ?v0 f40)) (not (= ?v1 f40))))))
(assert (forall ((?v0 S3) (?v1 S3)) (not (= (f29 (f3 (f4 f6 (f3 (f4 f5 ?v0) ?v0)) (f3 (f4 f5 ?v1) ?v1)) f40) f1))))
(assert (forall ((?v0 S3) (?v1 S3) (?v2 S6) (?v3 S3)) (let ((?v_0 (f13 (f16 f17 ?v0) ?v2))) (=> (= (f26 ?v0) f1) (=> (not (= (f32 ?v0 ?v1) f1)) (=> (= (f32 ?v_0 (f3 (f4 f5 ?v3) ?v1)) f1) (= (f32 ?v_0 ?v3) f1)))))))
(assert (forall ((?v0 S3) (?v1 S3) (?v2 S6) (?v3 S3)) (let ((?v_0 (f13 (f16 f17 ?v0) ?v2))) (=> (= (f26 ?v0) f1) (=> (not (= (f32 ?v0 ?v1) f1)) (=> (= (f32 ?v_0 (f3 (f4 f5 ?v1) ?v3)) f1) (= (f32 ?v_0 ?v3) f1)))))))
(assert (forall ((?v0 S3) (?v1 S3) (?v2 S6)) (= (f33 (f34 f37 (f19 f20 ?v0)) (f33 (f34 f37 (f19 f20 ?v1)) ?v2)) (ite (= (f29 ?v0 f10) f1) f28 (f33 (f34 f37 (f19 f20 (f3 (f4 f5 ?v0) ?v1))) ?v2)))))
(assert (forall ((?v0 S3) (?v1 S3)) (= (f33 (f34 f37 (f19 f20 ?v0)) (f19 f20 ?v1)) (ite (= (f29 ?v0 f10) f1) f28 (f19 f20 (f3 (f4 f5 ?v0) ?v1))))))
(assert (forall ((?v0 S3) (?v1 S3)) (let ((?v_1 (f19 f20 ?v0)) (?v_0 (f19 f20 ?v1))) (= (f33 (f34 f36 ?v_1) ?v_0) (ite (= (f29 ?v0 f10) f1) ?v_0 (ite (= (f29 ?v1 f10) f1) ?v_1 (f19 f20 (f3 (f4 f6 ?v0) ?v1))))))))
(assert (forall ((?v0 S3) (?v1 S3)) (= (= (f3 (f4 f6 (f3 (f4 f5 ?v0) ?v0)) (f3 (f4 f5 ?v1) ?v1)) f40) (and (= ?v0 f40) (= ?v1 f40)))))
(assert (= f40 (f3 f7 f10)))
(assert (= (f19 f20 f10) f28))
(assert (= f28 (f19 f20 f10)))
(assert (forall ((?v0 S6)) (= (f33 (f34 f37 (f19 f20 (f3 f8 (f3 f9 f10)))) ?v0) (f33 (f34 f36 ?v0) ?v0))))
(assert (forall ((?v0 S6)) (= (f33 (f34 f37 ?v0) (f19 f20 (f3 f8 (f3 f9 f10)))) (f33 (f34 f36 ?v0) ?v0))))
(assert (forall ((?v0 S3)) (= (= (f29 f40 (f13 (f16 f17 ?v0) (f19 f20 (f3 f8 (f3 f9 f10))))) f1) (not (= ?v0 f40)))))
(assert (forall ((?v0 S3)) (not (= (f29 (f13 (f16 f17 ?v0) (f19 f20 (f3 f8 (f3 f9 f10)))) f40) f1))))
(assert (forall ((?v0 S3) (?v1 S3)) (let ((?v_0 (f19 f20 (f3 f8 (f3 f9 f10))))) (= (= (f29 f40 (f3 (f4 f6 (f13 (f16 f17 ?v0) ?v_0)) (f13 (f16 f17 ?v1) ?v_0))) f1) (or (not (= ?v0 f40)) (not (= ?v1 f40)))))))
(assert (forall ((?v0 S3) (?v1 S3)) (let ((?v_0 (f19 f20 (f3 f8 (f3 f9 f10))))) (not (= (f29 (f3 (f4 f6 (f13 (f16 f17 ?v0) ?v_0)) (f13 (f16 f17 ?v1) ?v_0)) f40) f1)))))
(assert (forall ((?v0 S3) (?v1 S3)) (=> (= (f27 ?v0) f1) (=> (= (f27 ?v1) f1) (= (f27 (f3 (f4 f5 ?v0) ?v1)) f1)))))
(assert (= (f26 (f3 f7 (f3 f8 (f3 f9 f10)))) f1))
(assert (forall ((?v0 S3) (?v1 S6)) (let ((?v_1 (f19 f20 (f3 f8 (f3 f9 f10)))) (?v_0 (f16 f17 ?v0))) (= (f13 ?v_0 (f33 (f34 f37 ?v_1) ?v1)) (f13 (f16 f17 (f13 ?v_0 ?v1)) ?v_1)))))
(assert (forall ((?v0 S6) (?v1 S6)) (let ((?v_1 (f19 f20 (f3 f8 (f3 f9 f10)))) (?v_0 (f34 f35 ?v0))) (= (f33 ?v_0 (f33 (f34 f37 ?v_1) ?v1)) (f33 (f34 f35 (f33 ?v_0 ?v1)) ?v_1)))))
(assert (forall ((?v0 S3)) (= (= (f13 (f16 f17 ?v0) (f19 f20 (f3 f8 (f3 f9 f10)))) f40) (= ?v0 f40))))
(assert (= (f13 (f16 f17 f40) (f19 f20 (f3 f8 (f3 f9 f10)))) f40))
(assert (= (f33 (f34 f35 f28) (f19 f20 (f3 f8 (f3 f9 f10)))) f28))
(assert (forall ((?v0 S3) (?v1 S3)) (let ((?v_0 (f19 f20 (f3 f8 (f3 f9 f10))))) (= (= (f3 (f4 f6 (f13 (f16 f17 ?v0) ?v_0)) (f13 (f16 f17 ?v1) ?v_0)) f40) (and (= ?v0 f40) (= ?v1 f40))))))
(assert (= f12 (f3 f7 (f3 f9 f10))))
(assert (forall ((?v0 S3)) (= (f13 (f16 f17 ?v0) (f19 f20 (f3 f9 (f3 f9 f10)))) (f3 (f4 f5 (f3 (f4 f5 ?v0) ?v0)) ?v0))))
(assert (forall ((?v0 S6)) (= (f33 (f34 f35 ?v0) (f19 f20 (f3 f9 (f3 f9 f10)))) (f33 (f34 f37 (f33 (f34 f37 ?v0) ?v0)) ?v0))))
(assert (forall ((?v0 S3)) (let ((?v_2 (f3 f8 (f3 f9 f10)))) (let ((?v_0 (f19 f20 ?v_2)) (?v_1 (f16 f17 ?v0))) (= (f13 (f16 f17 (f13 ?v_1 ?v_0)) ?v_0) (f13 ?v_1 (f19 f20 (f3 f8 ?v_2))))))))
(assert (forall ((?v0 S3)) (= (f13 (f16 f17 ?v0) (f19 f20 (f3 f8 (f3 f9 f10)))) (f3 (f4 f5 ?v0) ?v0))))
(assert (forall ((?v0 S6)) (= (f33 (f34 f35 ?v0) (f19 f20 (f3 f8 (f3 f9 f10)))) (f33 (f34 f37 ?v0) ?v0))))
(assert (= (f13 (f16 f17 f12) (f19 f20 (f3 f8 (f3 f9 f10)))) f12))
(assert (= (f33 (f34 f35 f41) (f19 f20 (f3 f8 (f3 f9 f10)))) f41))
(assert (forall ((?v0 S3)) (let ((?v_1 (f3 f9 f10)) (?v_0 (f16 f17 ?v0))) (= (f3 (f4 f5 ?v0) (f13 ?v_0 (f19 f20 (f3 f8 ?v_1)))) (f13 ?v_0 (f19 f20 (f3 f9 ?v_1)))))))
(assert (= (f27 (f3 (f4 f5 (f3 (f4 f6 (f3 (f4 f5 (f3 f7 (f3 f8 (f3 f8 (f3 f9 f10))))) f11)) f12)) f38)) f1))
(assert (= (f29 f38 (f3 (f4 f6 (f3 (f4 f5 (f3 f7 (f3 f8 (f3 f8 (f3 f9 f10))))) f11)) f12)) f1))
(assert (let ((?v_0 (f3 f8 (f3 f9 f10)))) (= (f32 (f3 (f4 f6 (f3 (f4 f5 (f3 f7 (f3 f8 ?v_0))) f11)) f12) (f3 (f4 f6 (f13 (f16 f17 f42) (f19 f20 ?v_0))) f12)) f1)))
(assert (= (f29 f40 (f3 (f4 f6 (f3 (f4 f5 (f3 f7 (f3 f8 (f3 f8 (f3 f9 f10))))) f11)) f12)) f1))
(assert (forall ((?v0 S6)) (= (f29 (f13 f14 ?v0) (f13 (f16 f17 (f3 f7 (f3 f8 (f3 f9 f10)))) ?v0)) f1)))
(assert (let ((?v_0 (f3 f8 (f3 f9 f10)))) (= (f3 (f4 f6 (f13 (f16 f17 f42) (f19 f20 ?v_0))) f12) (f3 (f4 f5 (f3 (f4 f6 (f3 (f4 f5 (f3 f7 (f3 f8 ?v_0))) f11)) f12)) f38))))
(assert (let ((?v_0 (f3 f8 (f3 f9 f10)))) (= (f3 f7 ?v_0) (f13 f14 (f19 f20 ?v_0)))))
(check-sat)
(exit)
